# VARIABLES
variable        data_name      index 	sys.data
variable        settings_name  index 	sys.settings
variable        nmin	       index    10000
variable        nheat          index    220000
variable        nequil         index    200000	  # number of data steps
variable        avg_freq       index    20000
variable        coords_freq    index    2000
variable        thermo_freq    index    1000
variable        dump4avg       index    100
variable        T0	       index    300.00 
variable        vseed1      index 1254
variable        vseed2      index 6233

#===========================================================
# GENERAL PROCEDURES
#===========================================================
units		real	# g/mol, angstroms, fs, kcal/mol, K, atm, charge*angstrom
dimension	3	# 3 dimensional simulation
newton		on	# use Newton's 3rd law
boundary	p p p	# periodic boundary conditions 
atom_style	full    # molecular + charge

#===========================================================
# FORCE FIELD DEFINITION
#===========================================================
special_bonds lj 0.0 0.0 0.5
special_bonds coul 0.0 0.0 0.5
pair_style     lj/cut/coul/long 12.0
bond_style     hybrid harmonic morse            
angle_style    hybrid harmonic           
dihedral_style hybrid fourier 
kspace_style   pppm 1e-4            # long-range electrostatics sum method
improper_style none                 # no impropers
pair_modify shift yes  mix geometric
neigh_modify delay 0 every 1 check yes page 500000 one 50000

#===========================================================
# SETUP SIMULATIONS
#===========================================================
# READ IN COEFFICIENTS/COORDINATES/TOPOLOGY
read_data mc3a.npt.data 
include   sys.settings 
 
# SET RUN PARAMETERS
timestep	1.0		# fs
run_style	verlet 		# Velocity-Verlet integrator

# SET OUTPUTS
#thermo_style    custom step temp vol press density enthalpy etotal pe ke evdwl ecoul epair ebond eangle edihed eimp emol elong etail
thermo_style    custom step temp vol press density enthalpy etotal pe ke
thermo_modify   format float %14.6f
thermo ${thermo_freq}

# DECLARE RELEVANT OUTPUT VARIABLES
variable        my_step equal   step
variable        my_temp equal   temp
variable        my_rho  equal   density
variable        my_pe   equal   pe
variable        my_ebon equal   ebond
variable        my_eang equal   eangle
variable        my_edih equal   edihed
variable        my_evdw equal   evdwl
variable        my_eel  equal   (ecoul+elong)
variable        my_ent  equal   enthalpy
variable        my_P    equal   press
variable        my_vol  equal   vol

fix  averages all ave/time ${dump4avg} $(v_avg_freq/v_dump4avg) ${avg_freq} v_my_temp v_my_rho v_my_vol v_my_pe v_my_edih v_my_evdw v_my_eel v_my_ent v_my_P file thermo.avg

# CREATE COORDINATE DUMPS
group WATER type 31 32 33
group NONWATER subtract all WATER 
group BENZENE type 13

#===========================================================
# PRODUCTION 
#===========================================================

# Define how long we'd like each surfactant to diffuse.
variable surfactant_time index 2000000
variable min_time index 5000

# Reset simulation after centering around MC3A.
thermo_style    custom step temp vol press density enthalpy etotal pe ke
thermo_modify   format float %14.6f
thermo ${thermo_freq}

dump crds NONWATER custom ${coords_freq} prod.lammpstrj id mol type x y z
dump_modify crds sort id

restart 2000000 surf.restart

# Run in NPT for a short time.
velocity all create 300 12345 
fix ICECUBE all momentum 1000 linear 1 1 1

fix INTEGRATE WATER rigid/npt/small molecule temp 300.0 300.0 100.0 iso 1.0 1.0 1000.0
fix NVT NONWATER nvt temp 300.0 300.0 100.0
fix CENTER BENZENE recenter 45.0 45.0 45.0

run 1000

unfix CENTER
unfix NVT
unfix INTEGRATE

# Insert new surfactant molecule.
region CAGE sphere 45.0 45.0 45.0 30.0 side out
region INTERACT sphere 45.0 45.0 45.0 40.0 side in
region TARGET intersect 2 CAGE INTERACT

molecule S12 s12.mol offset 0 0 0 0 0
create_atoms 0 random 1 34564 TARGET mol S12 25367

# Manage groups with new particle insertion.
undump crds
group WATER delete
group NONWATER delete
group BENZENE delete
group WATER type 31 32 33
group NONWATER subtract all WATER 
group BENZENE type 13
delete_atoms overlap 1.5 WATER NONWATER mol yes

# Redefine dump.
dump crds NONWATER custom ${coords_freq} prod1.lammpstrj id mol type x y z
dump_modify crds sort id

# Minimize structure (might need to delete waters...)
fix INTEGRATE WATER rigid/nve/small molecule
fix NVE NONWATER nve/limit 0.1
fix CENTER BENZENE recenter 45.0 45.0 45.0

run ${min_time}

unfix CENTER
unfix NVE
unfix INTEGRATE

# Continue running in NPT for a short time.
fix ICECUBE all momentum 1000 linear 1 1 1

fix INTEGRATE WATER rigid/npt/small molecule temp 300.0 300.0 100.0 iso 1.0 1.0 1000.0
fix NVT NONWATER nvt temp 300.0 300.0 100.0
fix CENTER BENZENE recenter 45.0 45.0 45.0

run ${surfactant_time} # Choose this time to allow the surfactant molecule to diffuse widely.

unfix CENTER
unfix NVT
unfix INTEGRATE

### Round 2

# Insert new surfactant molecule.
create_atoms 0 random 1 34564 TARGET mol S12 25367

# Manage groups with new particle insertion.
undump crds
group WATER delete
group NONWATER delete
group BENZENE delete
group WATER type 31 32 33
group NONWATER subtract all WATER 
group BENZENE type 13
delete_atoms overlap 1.5 WATER NONWATER mol yes

# Redefine dump.
dump crds NONWATER custom ${coords_freq} prod2.lammpstrj id mol type x y z
dump_modify crds sort id

# Minimize structure (might need to delete waters...)
fix INTEGRATE WATER rigid/nve/small molecule
fix NVE NONWATER nve/limit 0.1
fix CENTER BENZENE recenter 45.0 45.0 45.0

run ${min_time}

unfix CENTER
unfix NVE
unfix INTEGRATE

# Continue running in NPT for a short time.
fix ICECUBE all momentum 1000 linear 1 1 1

fix INTEGRATE WATER rigid/npt/small molecule temp 300.0 300.0 100.0 iso 1.0 1.0 1000.0
fix NVT NONWATER nvt temp 300.0 300.0 100.0
fix CENTER BENZENE recenter 45.0 45.0 45.0

run ${surfactant_time} # Choose this time to allow the surfactant molecule to diffuse widely.

unfix CENTER
unfix NVT
unfix INTEGRATE

### Round 3

# Insert new surfactant molecule.
create_atoms 0 random 1 18264 TARGET mol S12 50979

# Manage groups with new particle insertion.
undump crds
group WATER delete
group NONWATER delete
group BENZENE delete
group WATER type 31 32 33
group NONWATER subtract all WATER 
group BENZENE type 13
delete_atoms overlap 1.5 WATER NONWATER mol yes

# Redefine dump.
dump crds NONWATER custom ${coords_freq} prod3.lammpstrj id mol type x y z
dump_modify crds sort id

# Minimize structure (might need to delete waters...)
fix INTEGRATE WATER rigid/nve/small molecule
fix NVE NONWATER nve/limit 0.1
fix CENTER BENZENE recenter 45.0 45.0 45.0

run ${min_time}

unfix CENTER
unfix NVE
unfix INTEGRATE

# Continue running in NPT for a short time.
fix ICECUBE all momentum 1000 linear 1 1 1

fix INTEGRATE WATER rigid/npt/small molecule temp 300.0 300.0 100.0 iso 1.0 1.0 1000.0
fix NVT NONWATER nvt temp 300.0 300.0 100.0
fix CENTER BENZENE recenter 45.0 45.0 45.0

run ${surfactant_time} # Choose this time to allow the surfactant molecule to diffuse widely.

unfix CENTER
unfix NVT
unfix INTEGRATE

### Round 4

# Insert new surfactant molecule.
create_atoms 0 random 1 64428 TARGET mol S12 12741

# Manage groups with new particle insertion.
undump crds
group WATER delete
group NONWATER delete
group BENZENE delete
group WATER type 31 32 33
group NONWATER subtract all WATER 
group BENZENE type 13
delete_atoms overlap 1.5 WATER NONWATER mol yes

# Redefine dump.
dump crds NONWATER custom ${coords_freq} prod4.lammpstrj id mol type x y z
dump_modify crds sort id

# Minimize structure (might need to delete waters...)
fix INTEGRATE WATER rigid/nve/small molecule
fix NVE NONWATER nve/limit 0.1
fix CENTER BENZENE recenter 45.0 45.0 45.0

run ${min_time}

unfix CENTER
unfix NVE
unfix INTEGRATE

# Continue running in NPT for a short time.
fix ICECUBE all momentum 1000 linear 1 1 1

fix INTEGRATE WATER rigid/npt/small molecule temp 300.0 300.0 100.0 iso 1.0 1.0 1000.0
fix NVT NONWATER nvt temp 300.0 300.0 100.0
fix CENTER BENZENE recenter 45.0 45.0 45.0

run ${surfactant_time} # Choose this time to allow the surfactant molecule to diffuse widely.

unfix CENTER
unfix NVT
unfix INTEGRATE

### Round 5

# Insert new surfactant molecule.
create_atoms 0 random 1 41391 TARGET mol S12 30730

# Manage groups with new particle insertion.
undump crds
group WATER delete
group NONWATER delete
group BENZENE delete
group WATER type 31 32 33
group NONWATER subtract all WATER 
group BENZENE type 13
delete_atoms overlap 1.5 WATER NONWATER mol yes

# Redefine dump.
dump crds NONWATER custom ${coords_freq} prod5.lammpstrj id mol type x y z
dump_modify crds sort id

# Minimize structure (might need to delete waters...)
fix INTEGRATE WATER rigid/nve/small molecule
fix NVE NONWATER nve/limit 0.1
fix CENTER BENZENE recenter 45.0 45.0 45.0

run ${min_time}

unfix CENTER
unfix NVE
unfix INTEGRATE

# Continue running in NPT for a short time.
fix ICECUBE all momentum 1000 linear 1 1 1

fix INTEGRATE WATER rigid/npt/small molecule temp 300.0 300.0 100.0 iso 1.0 1.0 1000.0
fix NVT NONWATER nvt temp 300.0 300.0 100.0
fix CENTER BENZENE recenter 45.0 45.0 45.0

run ${surfactant_time} # Choose this time to allow the surfactant molecule to diffuse widely.

unfix CENTER
unfix NVT
unfix INTEGRATE

### Round 6

# Insert new surfactant molecule.
create_atoms 0 random 1 76270 TARGET mol S12 25367

# Manage groups with new particle insertion.
undump crds
group WATER delete
group NONWATER delete
group BENZENE delete
group WATER type 31 32 33
group NONWATER subtract all WATER 
group BENZENE type 13
delete_atoms overlap 1.5 WATER NONWATER mol yes

# Redefine dump.
dump crds NONWATER custom ${coords_freq} prod6.lammpstrj id mol type x y z
dump_modify crds sort id

# Minimize structure (might need to delete waters...)
fix INTEGRATE WATER rigid/nve/small molecule
fix NVE NONWATER nve/limit 0.1
fix CENTER BENZENE recenter 45.0 45.0 45.0

run ${min_time}

unfix CENTER
unfix NVE
unfix INTEGRATE

# Continue running in NPT for a short time.
fix ICECUBE all momentum 1000 linear 1 1 1

fix INTEGRATE WATER rigid/npt/small molecule temp 300.0 300.0 100.0 iso 1.0 1.0 1000.0
fix NVT NONWATER nvt temp 300.0 300.0 100.0
fix CENTER BENZENE recenter 45.0 45.0 45.0

run ${surfactant_time} # Choose this time to allow the surfactant molecule to diffuse widely.

unfix CENTER
unfix NVT
unfix INTEGRATE

### Round 7

# Insert new surfactant molecule.
create_atoms 0 random 1 78869 TARGET mol S12 60828

# Manage groups with new particle insertion.
undump crds
group WATER delete
group NONWATER delete
group BENZENE delete
group WATER type 31 32 33
group NONWATER subtract all WATER 
group BENZENE type 13
delete_atoms overlap 1.5 WATER NONWATER mol yes

# Redefine dump.
dump crds NONWATER custom ${coords_freq} prod7.lammpstrj id mol type x y z
dump_modify crds sort id

# Minimize structure (might need to delete waters...)
fix INTEGRATE WATER rigid/nve/small molecule
fix NVE NONWATER nve/limit 0.1
fix CENTER BENZENE recenter 45.0 45.0 45.0

run ${min_time}

unfix CENTER
unfix NVE
unfix INTEGRATE

# Continue running in NPT for a short time.
fix ICECUBE all momentum 1000 linear 1 1 1

fix INTEGRATE WATER rigid/npt/small molecule temp 300.0 300.0 100.0 iso 1.0 1.0 1000.0
fix NVT NONWATER nvt temp 300.0 300.0 100.0
fix CENTER BENZENE recenter 45.0 45.0 45.0

run ${surfactant_time} # Choose this time to allow the surfactant molecule to diffuse widely.

unfix CENTER
unfix NVT
unfix INTEGRATE

### Round 8

# Insert new surfactant molecule.
create_atoms 0 random 1 68399 TARGET mol S12 15849

# Manage groups with new particle insertion.
undump crds
group WATER delete
group NONWATER delete
group BENZENE delete
group WATER type 31 32 33
group NONWATER subtract all WATER 
group BENZENE type 13
delete_atoms overlap 1.5 WATER NONWATER mol yes

# Redefine dump.
dump crds NONWATER custom ${coords_freq} prod8.lammpstrj id mol type x y z
dump_modify crds sort id

# Minimize structure (might need to delete waters...)
fix INTEGRATE WATER rigid/nve/small molecule
fix NVE NONWATER nve/limit 0.1
fix CENTER BENZENE recenter 45.0 45.0 45.0

run ${min_time}

unfix CENTER
unfix NVE
unfix INTEGRATE

# Continue running in NPT for a short time.
fix ICECUBE all momentum 1000 linear 1 1 1

fix INTEGRATE WATER rigid/npt/small molecule temp 300.0 300.0 100.0 iso 1.0 1.0 1000.0
fix NVT NONWATER nvt temp 300.0 300.0 100.0
fix CENTER BENZENE recenter 45.0 45.0 45.0

run ${surfactant_time} # Choose this time to allow the surfactant molecule to diffuse widely.

unfix CENTER
unfix NVT
unfix INTEGRATE

### Round 9

# Insert new surfactant molecule.
create_atoms 0 random 1 58957 TARGET mol S12 16032

# Manage groups with new particle insertion.
undump crds
group WATER delete
group NONWATER delete
group BENZENE delete
group WATER type 31 32 33
group NONWATER subtract all WATER 
group BENZENE type 13
delete_atoms overlap 1.5 WATER NONWATER mol yes

# Redefine dump.
dump crds NONWATER custom ${coords_freq} prod9.lammpstrj id mol type x y z
dump_modify crds sort id

# Minimize structure (might need to delete waters...)
fix INTEGRATE WATER rigid/nve/small molecule
fix NVE NONWATER nve/limit 0.1
fix CENTER BENZENE recenter 45.0 45.0 45.0

run ${min_time}

unfix CENTER
unfix NVE
unfix INTEGRATE

# Continue running in NPT for a short time.
fix ICECUBE all momentum 1000 linear 1 1 1

fix INTEGRATE WATER rigid/npt/small molecule temp 300.0 300.0 100.0 iso 1.0 1.0 1000.0
fix NVT NONWATER nvt temp 300.0 300.0 100.0
fix CENTER BENZENE recenter 45.0 45.0 45.0

run ${surfactant_time} # Choose this time to allow the surfactant molecule to diffuse widely.

unfix CENTER
unfix NVT
unfix INTEGRATE

### Round 10

# Insert new surfactant molecule.
create_atoms 0 random 1 15540 TARGET mol S12 81673

# Manage groups with new particle insertion.
undump crds
group WATER delete
group NONWATER delete
group BENZENE delete
group WATER type 31 32 33
group NONWATER subtract all WATER 
group BENZENE type 13
delete_atoms overlap 1.5 WATER NONWATER mol yes

# Redefine dump.
dump crds NONWATER custom ${coords_freq} prod10.lammpstrj id mol type x y z
dump_modify crds sort id

# Minimize structure (might need to delete waters...)
fix INTEGRATE WATER rigid/nve/small molecule
fix NVE NONWATER nve/limit 0.1
fix CENTER BENZENE recenter 45.0 45.0 45.0

run ${min_time}

unfix CENTER
unfix NVE
unfix INTEGRATE

# Continue running in NPT for a short time.
fix ICECUBE all momentum 1000 linear 1 1 1

fix INTEGRATE WATER rigid/npt/small molecule temp 300.0 300.0 100.0 iso 1.0 1.0 1000.0
fix NVT NONWATER nvt temp 300.0 300.0 100.0
fix CENTER BENZENE recenter 45.0 45.0 45.0

run ${surfactant_time} # Choose this time to allow the surfactant molecule to diffuse widely.

unfix CENTER
unfix NVT
unfix INTEGRATE

### Round 11

# Insert new surfactant molecule.
create_atoms 0 random 1 92863 TARGET mol S12 54475

# Manage groups with new particle insertion.
undump crds
group WATER delete
group NONWATER delete
group BENZENE delete
group WATER type 31 32 33
group NONWATER subtract all WATER 
group BENZENE type 13
delete_atoms overlap 1.5 WATER NONWATER mol yes

# Redefine dump.
dump crds NONWATER custom ${coords_freq} prod11.lammpstrj id mol type x y z
dump_modify crds sort id

# Minimize structure (might need to delete waters...)
fix INTEGRATE WATER rigid/nve/small molecule
fix NVE NONWATER nve/limit 0.1
fix CENTER BENZENE recenter 45.0 45.0 45.0

run ${min_time}

unfix CENTER
unfix NVE
unfix INTEGRATE

# Continue running in NPT for a short time.
fix ICECUBE all momentum 1000 linear 1 1 1

fix INTEGRATE WATER rigid/npt/small molecule temp 300.0 300.0 100.0 iso 1.0 1.0 1000.0
fix NVT NONWATER nvt temp 300.0 300.0 100.0
fix CENTER BENZENE recenter 45.0 45.0 45.0

run ${surfactant_time} # Choose this time to allow the surfactant molecule to diffuse widely.

unfix CENTER
unfix NVT
unfix INTEGRATE

### Round 12

# Insert new surfactant molecule.
create_atoms 0 random 1 99794 TARGET mol S12 73635

# Manage groups with new particle insertion.
undump crds
group WATER delete
group NONWATER delete
group BENZENE delete
group WATER type 31 32 33
group NONWATER subtract all WATER 
group BENZENE type 13
delete_atoms overlap 1.5 WATER NONWATER mol yes

# Redefine dump.
dump crds NONWATER custom ${coords_freq} prod12.lammpstrj id mol type x y z
dump_modify crds sort id

# Minimize structure (might need to delete waters...)
fix INTEGRATE WATER rigid/nve/small molecule
fix NVE NONWATER nve/limit 0.1
fix CENTER BENZENE recenter 45.0 45.0 45.0

run ${min_time}

unfix CENTER
unfix NVE
unfix INTEGRATE

# Continue running in NPT for a short time.
fix ICECUBE all momentum 1000 linear 1 1 1

fix INTEGRATE WATER rigid/npt/small molecule temp 300.0 300.0 100.0 iso 1.0 1.0 1000.0
fix NVT NONWATER nvt temp 300.0 300.0 100.0
fix CENTER BENZENE recenter 45.0 45.0 45.0

run ${surfactant_time} # Choose this time to allow the surfactant molecule to diffuse widely.

unfix CENTER
unfix NVT
unfix INTEGRATE

### Round 13

# Insert new surfactant molecule.
create_atoms 0 random 1 27822 TARGET mol S12 92425

# Manage groups with new particle insertion.
undump crds
group WATER delete
group NONWATER delete
group BENZENE delete
group WATER type 31 32 33
group NONWATER subtract all WATER 
group BENZENE type 13
delete_atoms overlap 1.5 WATER NONWATER mol yes

# Redefine dump.
dump crds NONWATER custom ${coords_freq} prod13.lammpstrj id mol type x y z
dump_modify crds sort id

# Minimize structure (might need to delete waters...)
fix INTEGRATE WATER rigid/nve/small molecule
fix NVE NONWATER nve/limit 0.1
fix CENTER BENZENE recenter 45.0 45.0 45.0

run ${min_time}

unfix CENTER
unfix NVE
unfix INTEGRATE

# Continue running in NPT for a short time.
fix ICECUBE all momentum 1000 linear 1 1 1

fix INTEGRATE WATER rigid/npt/small molecule temp 300.0 300.0 100.0 iso 1.0 1.0 1000.0
fix NVT NONWATER nvt temp 300.0 300.0 100.0
fix CENTER BENZENE recenter 45.0 45.0 45.0

run ${surfactant_time} # Choose this time to allow the surfactant molecule to diffuse widely.

unfix CENTER
unfix NVT
unfix INTEGRATE

### Round 14

# Insert new surfactant molecule.
create_atoms 0 random 1 24250 TARGET mol S12 17311

# Manage groups with new particle insertion.
undump crds
group WATER delete
group NONWATER delete
group BENZENE delete
group WATER type 31 32 33
group NONWATER subtract all WATER 
group BENZENE type 13
delete_atoms overlap 1.5 WATER NONWATER mol yes

# Redefine dump.
dump crds NONWATER custom ${coords_freq} prod14.lammpstrj id mol type x y z
dump_modify crds sort id

# Minimize structure (might need to delete waters...)
fix INTEGRATE WATER rigid/nve/small molecule
fix NVE NONWATER nve/limit 0.1
fix CENTER BENZENE recenter 45.0 45.0 45.0

run ${min_time}

unfix CENTER
unfix NVE
unfix INTEGRATE

# Continue running in NPT for a short time.
fix ICECUBE all momentum 1000 linear 1 1 1

fix INTEGRATE WATER rigid/npt/small molecule temp 300.0 300.0 100.0 iso 1.0 1.0 1000.0
fix NVT NONWATER nvt temp 300.0 300.0 100.0
fix CENTER BENZENE recenter 45.0 45.0 45.0

run ${surfactant_time} # Choose this time to allow the surfactant molecule to diffuse widely.

unfix CENTER
unfix NVT
unfix INTEGRATE

### Round 15

# Insert new surfactant molecule.
create_atoms 0 random 1 32198 TARGET mol S12 67454

# Manage groups with new particle insertion.
undump crds
group WATER delete
group NONWATER delete
group BENZENE delete
group WATER type 31 32 33
group NONWATER subtract all WATER 
group BENZENE type 13
delete_atoms overlap 1.5 WATER NONWATER mol yes

# Redefine dump.
dump crds NONWATER custom ${coords_freq} prod15.lammpstrj id mol type x y z
dump_modify crds sort id

# Minimize structure (might need to delete waters...)
fix INTEGRATE WATER rigid/nve/small molecule
fix NVE NONWATER nve/limit 0.1
fix CENTER BENZENE recenter 45.0 45.0 45.0

run ${min_time}

unfix CENTER
unfix NVE
unfix INTEGRATE

# Continue running in NPT for a short time.
fix ICECUBE all momentum 1000 linear 1 1 1

fix INTEGRATE WATER rigid/npt/small molecule temp 300.0 300.0 100.0 iso 1.0 1.0 1000.0
fix NVT NONWATER nvt temp 300.0 300.0 100.0
fix CENTER BENZENE recenter 45.0 45.0 45.0

run ${surfactant_time} # Choose this time to allow the surfactant molecule to diffuse widely.

unfix CENTER
unfix NVT
unfix INTEGRATE

### Round 16

# Insert new surfactant molecule.
create_atoms 0 random 1 72119 TARGET mol S12 30032

# Manage groups with new particle insertion.
undump crds
group WATER delete
group NONWATER delete
group BENZENE delete
group WATER type 31 32 33
group NONWATER subtract all WATER 
group BENZENE type 13
delete_atoms overlap 1.5 WATER NONWATER mol yes

# Redefine dump.
dump crds NONWATER custom ${coords_freq} prod16.lammpstrj id mol type x y z
dump_modify crds sort id

# Minimize structure (might need to delete waters...)
fix INTEGRATE WATER rigid/nve/small molecule
fix NVE NONWATER nve/limit 0.1
fix CENTER BENZENE recenter 45.0 45.0 45.0

run ${min_time}

unfix CENTER
unfix NVE
unfix INTEGRATE

# Continue running in NPT for a short time.
fix ICECUBE all momentum 1000 linear 1 1 1

fix INTEGRATE WATER rigid/npt/small molecule temp 300.0 300.0 100.0 iso 1.0 1.0 1000.0
fix NVT NONWATER nvt temp 300.0 300.0 100.0
fix CENTER BENZENE recenter 45.0 45.0 45.0

run ${surfactant_time} # Choose this time to allow the surfactant molecule to diffuse widely.

unfix CENTER
unfix NVT
unfix INTEGRATE

### Round 17

# Insert new surfactant molecule.
create_atoms 0 random 1 81500 TARGET mol S12 11398

# Manage groups with new particle insertion.
undump crds
group WATER delete
group NONWATER delete
group BENZENE delete
group WATER type 31 32 33
group NONWATER subtract all WATER 
group BENZENE type 13
delete_atoms overlap 1.5 WATER NONWATER mol yes

# Redefine dump.
dump crds NONWATER custom ${coords_freq} prod17.lammpstrj id mol type x y z
dump_modify crds sort id

# Minimize structure (might need to delete waters...)
fix INTEGRATE WATER rigid/nve/small molecule
fix NVE NONWATER nve/limit 0.1
fix CENTER BENZENE recenter 45.0 45.0 45.0

run ${min_time}

unfix CENTER
unfix NVE
unfix INTEGRATE

# Continue running in NPT for a short time.
fix ICECUBE all momentum 1000 linear 1 1 1

fix INTEGRATE WATER rigid/npt/small molecule temp 300.0 300.0 100.0 iso 1.0 1.0 1000.0
fix NVT NONWATER nvt temp 300.0 300.0 100.0
fix CENTER BENZENE recenter 45.0 45.0 45.0

run ${surfactant_time} # Choose this time to allow the surfactant molecule to diffuse widely.

unfix CENTER
unfix NVT
unfix INTEGRATE

### Round 18

# Insert new surfactant molecule.
create_atoms 0 random 1 75021 TARGET mol S12 75460

# Manage groups with new particle insertion.
undump crds
group WATER delete
group NONWATER delete
group BENZENE delete
group WATER type 31 32 33
group NONWATER subtract all WATER 
group BENZENE type 13
delete_atoms overlap 1.5 WATER NONWATER mol yes

# Redefine dump.
dump crds NONWATER custom ${coords_freq} prod18.lammpstrj id mol type x y z
dump_modify crds sort id

# Minimize structure (might need to delete waters...)
fix INTEGRATE WATER rigid/nve/small molecule
fix NVE NONWATER nve/limit 0.1
fix CENTER BENZENE recenter 45.0 45.0 45.0

run ${min_time}

unfix CENTER
unfix NVE
unfix INTEGRATE

# Continue running in NPT for a short time.
fix ICECUBE all momentum 1000 linear 1 1 1

fix INTEGRATE WATER rigid/npt/small molecule temp 300.0 300.0 100.0 iso 1.0 1.0 1000.0
fix NVT NONWATER nvt temp 300.0 300.0 100.0
fix CENTER BENZENE recenter 45.0 45.0 45.0

run ${surfactant_time} # Choose this time to allow the surfactant molecule to diffuse widely.

unfix CENTER
unfix NVT
unfix INTEGRATE

### Round 19

# Insert new surfactant molecule.
create_atoms 0 random 1 25869 TARGET mol S12 25647

# Manage groups with new particle insertion.
undump crds
group WATER delete
group NONWATER delete
group BENZENE delete
group WATER type 31 32 33
group NONWATER subtract all WATER 
group BENZENE type 13
delete_atoms overlap 1.5 WATER NONWATER mol yes

# Redefine dump.
dump crds NONWATER custom ${coords_freq} prod19.lammpstrj id mol type x y z
dump_modify crds sort id

# Minimize structure (might need to delete waters...)
fix INTEGRATE WATER rigid/nve/small molecule
fix NVE NONWATER nve/limit 0.1
fix CENTER BENZENE recenter 45.0 45.0 45.0

run ${min_time}

unfix CENTER
unfix NVE
unfix INTEGRATE

# Continue running in NPT for a short time.
fix ICECUBE all momentum 1000 linear 1 1 1

fix INTEGRATE WATER rigid/npt/small molecule temp 300.0 300.0 100.0 iso 1.0 1.0 1000.0
fix NVT NONWATER nvt temp 300.0 300.0 100.0
fix CENTER BENZENE recenter 45.0 45.0 45.0

run ${surfactant_time} # Choose this time to allow the surfactant molecule to diffuse widely.

unfix CENTER
unfix NVT
unfix INTEGRATE

### Round 20

# Insert new surfactant molecule.
create_atoms 0 random 1 18557 TARGET mol S12 22582

# Manage groups with new particle insertion.
undump crds
group WATER delete
group NONWATER delete
group BENZENE delete
group WATER type 31 32 33
group NONWATER subtract all WATER 
group BENZENE type 13
delete_atoms overlap 1.5 WATER NONWATER mol yes

# Redefine dump.
dump crds NONWATER custom ${coords_freq} prod20.lammpstrj id mol type x y z
dump_modify crds sort id

# Minimize structure (might need to delete waters...)
fix INTEGRATE WATER rigid/nve/small molecule
fix NVE NONWATER nve/limit 0.1
fix CENTER BENZENE recenter 45.0 45.0 45.0

run ${min_time}

unfix CENTER
unfix NVE
unfix INTEGRATE

# Continue running in NPT for a short time.
fix ICECUBE all momentum 1000 linear 1 1 1

fix INTEGRATE WATER rigid/npt/small molecule temp 300.0 300.0 100.0 iso 1.0 1.0 1000.0
fix NVT NONWATER nvt temp 300.0 300.0 100.0
fix CENTER BENZENE recenter 45.0 45.0 45.0

run ${surfactant_time} # Choose this time to allow the surfactant molecule to diffuse widely.

unfix CENTER
unfix NVT
unfix INTEGRATE

### Round 21

# Insert new surfactant molecule.
create_atoms 0 random 1 19028 TARGET mol S12 98095

# Manage groups with new particle insertion.
undump crds
group WATER delete
group NONWATER delete
group BENZENE delete
group WATER type 31 32 33
group NONWATER subtract all WATER 
group BENZENE type 13
delete_atoms overlap 1.5 WATER NONWATER mol yes

# Redefine dump.
dump crds NONWATER custom ${coords_freq} prod21.lammpstrj id mol type x y z
dump_modify crds sort id

# Minimize structure (might need to delete waters...)
fix INTEGRATE WATER rigid/nve/small molecule
fix NVE NONWATER nve/limit 0.1
fix CENTER BENZENE recenter 45.0 45.0 45.0

run ${min_time}

unfix CENTER
unfix NVE
unfix INTEGRATE

# Continue running in NPT for a short time.
fix ICECUBE all momentum 1000 linear 1 1 1

fix INTEGRATE WATER rigid/npt/small molecule temp 300.0 300.0 100.0 iso 1.0 1.0 1000.0
fix NVT NONWATER nvt temp 300.0 300.0 100.0
fix CENTER BENZENE recenter 45.0 45.0 45.0

run ${surfactant_time} # Choose this time to allow the surfactant molecule to diffuse widely.

unfix CENTER
unfix NVT
unfix INTEGRATE

### Round 22

# Insert new surfactant molecule.
create_atoms 0 random 1 37365 TARGET mol S12 27812

# Manage groups with new particle insertion.
undump crds
group WATER delete
group NONWATER delete
group BENZENE delete
group WATER type 31 32 33
group NONWATER subtract all WATER 
group BENZENE type 13
delete_atoms overlap 1.5 WATER NONWATER mol yes

# Redefine dump.
dump crds NONWATER custom ${coords_freq} prod22.lammpstrj id mol type x y z
dump_modify crds sort id

# Minimize structure (might need to delete waters...)
fix INTEGRATE WATER rigid/nve/small molecule
fix NVE NONWATER nve/limit 0.1
fix CENTER BENZENE recenter 45.0 45.0 45.0

run ${min_time}

unfix CENTER
unfix NVE
unfix INTEGRATE

# Continue running in NPT for a short time.
fix ICECUBE all momentum 1000 linear 1 1 1

fix INTEGRATE WATER rigid/npt/small molecule temp 300.0 300.0 100.0 iso 1.0 1.0 1000.0
fix NVT NONWATER nvt temp 300.0 300.0 100.0
fix CENTER BENZENE recenter 45.0 45.0 45.0

run ${surfactant_time} # Choose this time to allow the surfactant molecule to diffuse widely.

unfix CENTER
unfix NVT
unfix INTEGRATE

### Round 23

# Insert new surfactant molecule.
create_atoms 0 random 1 18399 TARGET mol S12 72258

# Manage groups with new particle insertion.
undump crds
group WATER delete
group NONWATER delete
group BENZENE delete
group WATER type 31 32 33
group NONWATER subtract all WATER 
group BENZENE type 13
delete_atoms overlap 1.5 WATER NONWATER mol yes

# Redefine dump.
dump crds NONWATER custom ${coords_freq} prod23.lammpstrj id mol type x y z
dump_modify crds sort id

# Minimize structure (might need to delete waters...)
fix INTEGRATE WATER rigid/nve/small molecule
fix NVE NONWATER nve/limit 0.1
fix CENTER BENZENE recenter 45.0 45.0 45.0

run ${min_time}

unfix CENTER
unfix NVE
unfix INTEGRATE

# Continue running in NPT for a short time.
fix ICECUBE all momentum 1000 linear 1 1 1

fix INTEGRATE WATER rigid/npt/small molecule temp 300.0 300.0 100.0 iso 1.0 1.0 1000.0
fix NVT NONWATER nvt temp 300.0 300.0 100.0
fix CENTER BENZENE recenter 45.0 45.0 45.0

run ${surfactant_time} # Choose this time to allow the surfactant molecule to diffuse widely.

unfix CENTER
unfix NVT
unfix INTEGRATE

### Round 24

# Insert new surfactant molecule.
create_atoms 0 random 1 53129 TARGET mol S12 76523

# Manage groups with new particle insertion.
undump crds
group WATER delete
group NONWATER delete
group BENZENE delete
group WATER type 31 32 33
group NONWATER subtract all WATER 
group BENZENE type 13
delete_atoms overlap 1.5 WATER NONWATER mol yes

# Redefine dump.
dump crds NONWATER custom ${coords_freq} prod24.lammpstrj id mol type x y z
dump_modify crds sort id

# Minimize structure (might need to delete waters...)
fix INTEGRATE WATER rigid/nve/small molecule
fix NVE NONWATER nve/limit 0.1
fix CENTER BENZENE recenter 45.0 45.0 45.0

run ${min_time}

unfix CENTER
unfix NVE
unfix INTEGRATE
